400, 40102
272, 272
190, 190
237, 237
95, 95
327, 327
154, 154
384, 384
159, 159
151, 151
381, 381
366, 366
295, 295
332, 332
66, 66
92, 92
265, 265
20, 20
68, 68
200, 200
254, 254
119, 119
128, 128
196, 196
359, 359
340, 340
140, 140
353, 353
127, 127
361, 361
161, 161
281, 281
61, 61
318, 318
19, 19
201, 201
70, 70
383, 383
193, 193
329, 329
303, 303
52, 52
152, 152
346, 346
191, 191
367, 367
242, 242
379, 379
371, 371
226, 226
316, 316
199, 199
92, 92
122, 122
133, 133
382, 382
19, 19
12, 12
177, 177
175, 175
316, 316
138, 138
286, 286
159, 159
136, 136
129, 129
367, 367
280, 280
52, 52
51, 51
275, 275
17, 17
271, 271
316, 316
266, 266
342, 342
121, 121
3, 3
30, 30
212, 212
359, 359
191, 191
252, 252
195, 195
180, 180
211, 211
230, 230
400, 400
273, 273
167, 167
177, 177
118, 118
380, 380
117, 117
121, 121
297, 297
190, 190
77, 77
261, 261
158, 158
159, 159
165, 165
101, 101
90, 90
212, 212
161, 161
120, 120
390, 390
312, 312
107, 107
42, 42
252, 252
57, 57
127, 127
234, 234
272, 272
153, 153
85, 85
185, 185
30, 30
262, 262
283, 283
94, 94
220, 220
99, 99
286, 286
375, 375
235, 235
388, 388
6, 6
314, 314
16, 16
377, 377
172, 172
170, 170
393, 393
210, 210
152, 152
213, 213
238, 238
321, 321
379, 379
298, 298
102, 102
268, 268
357, 357
152, 152
307, 307
257, 257
212, 212
129, 129
219, 219
181, 181
75, 75
237, 237
388, 388
229, 229
26, 26
219, 219
379, 379
174, 174
384, 384
322, 322
288, 288
71, 71
137, 137
102, 102
210, 210
92, 92
373, 373
167, 167
131, 131
134, 134
40, 40
387, 387
39, 39
21, 21
23, 23
283, 283
94, 94
207, 207
37, 37
338, 338
28, 28
322, 322
58, 58
242, 242
290, 290
134, 134
253, 253
41, 41
122, 122
63, 63
318, 318
353, 353
388, 388
350, 350
147, 147
350, 350
104, 104
166, 166
332, 332
320, 320
183, 183
28, 28
325, 325
120, 120
163, 163
119, 119
120, 120
86, 86
343, 343
231, 231
172, 172
385, 385
388, 388
227, 227
14, 14
177, 177
186, 186
42, 42
234, 234
54, 54
159, 159
299, 299
198, 198
107, 107
175, 175
80, 80
59, 59
20, 20
208, 208
37, 37
209, 209
85, 85
352, 352
343, 343
118, 118
269, 269
189, 189
263, 263
315, 315
31, 31
65, 65
349, 349
219, 219
305, 305
57, 57
362, 362
201, 201
77, 77
112, 112
374, 374
197, 197
213, 213
124, 124
103, 103
186, 186
179, 179
245, 245
115, 115
327, 327
15, 15
349, 349
61, 61
312, 312
329, 329
209, 209
203, 203
352, 352
358, 358
394, 394
56, 56
21, 21
136, 136
352, 352
101, 101
57, 57
38, 38
332, 332
11, 11
352, 352
43, 43
296, 296
284, 284
307, 307
138, 138
326, 326
55, 55
191, 191
175, 175
138, 138
105, 105
90, 90
128, 128
260, 260
257, 257
293, 293
338, 338
190, 190
300, 300
375, 375
376, 376
46, 46
111, 111
299, 299
134, 134
264, 264
116, 116
23, 23
309, 309
228, 228
379, 379
231, 231
223, 223
343, 343
385, 385
359, 359
281, 281
369, 369
350, 350
74, 74
385, 385
290, 290
280, 280
329, 329
44, 44
313, 313
85, 85
379, 379
386, 386
235, 235
142, 142
349, 349
198, 198
156, 156
80, 80
239, 239
253, 253
62, 62
92, 92
171, 171
48, 48
243, 243
317, 317
114, 114
365, 365
288, 288
73, 73
69, 69
359, 359
304, 304
193, 193
317, 317
269, 269
49, 49
211, 211
87, 87
312, 312
304, 304
15, 15
192, 192
366, 366
300, 300
150, 150
24, 24
84, 84
217, 217
126, 126
54, 54
113, 113
132, 132
114, 114
248, 248
317, 317
46, 46
22, 22
85, 85
56, 56
23, 23
248, 248
34, 34
23, 23
328, 328
131, 131
29, 29
185, 185
28, 28
45, 45
9, 9
8, 8
220, 220
256, 256
342, 342
186, 186
118, 118
214, 214
268, 268
391, 391
137, 137
29, 29
